Minimize
	value: tt

Subject to
tt + 1000 s_1_1 > 0.0
tt - t_1_1 - 1000.192051 s_1_1  + 0.192051 s_1_7  > -999.197000
tt + 1000 s_2_1 > 0.0
tt - t_2_1 - 1000.283022 s_2_1  + 0.283022 s_2_7  > -997.283779
tt + 1000 s_1_2 > 0.0
tt - t_1_2 - 1000.192051 s_1_2  + 0.192051 s_1_8  > -998.998856
tt + 1000 s_2_2 > 0.0
tt - t_2_2 - 1000.283022 s_2_2  + 0.283022 s_2_8  > -996.579008
tt + 1000 s_1_3 > 0.0
tt - t_1_3 - 1000.192051 s_1_3  + 0.192051 s_1_8  > -998.727800
tt + 1000 s_2_3 > 0.0
tt - t_2_3 - 1000.283022 s_2_3  + 0.283022 s_2_8  > -995.913450
tt + 1000 s_1_4 > 0.0
tt - t_1_4 - 1000.314269 s_1_4  + 0.192051 s_1_8  + 0.122219 s_1_3  > -999.402008
tt + 1000 s_2_4 > 0.0
tt - t_2_4 - 1000.484191 s_2_4  + 0.283022 s_2_8  + 0.201170 s_2_3  > -997.226033
tt + 1000 s_1_5 > 0.0
tt - t_1_5 - 1000.384101 s_1_5  + 0.192051 s_1_7  + 0.192051 s_1_8  > -999.035322
tt + 1000 s_2_5 > 0.0
tt - t_2_5 - 1000.566043 s_2_5  + 0.283022 s_2_7  + 0.283022 s_2_8  > -997.128675
tt + 1000 s_1_6 > 0.0
tt - t_1_6 - 1000.611093 s_1_6  + 0.122219 s_1_5  + 0.122219 s_1_2  + 0.122219 s_1_1  + 0.122219 s_1_3  + 0.122219 s_1_4  > -999.837111
tt + 1000 s_2_6 > 0.0
tt - t_2_6 - 1001.005848 s_2_6  + 0.201170 s_2_5  + 0.201170 s_2_2  + 0.201170 s_2_1  + 0.201170 s_2_3  + 0.201170 s_2_4  > -998.081900
tt + 1000 s_1_7 > 0.0
tt - t_1_7 - 1000.000000 s_1_7  > -997.742800
tt + 1000 s_2_7 > 0.0
tt - t_2_7 - 1000.000000 s_2_7  > -997.703100
tt + 1000 s_1_8 > 0.0
tt - t_1_8 - 1000.000000 s_1_8  > -997.615600
tt + 1000 s_2_8 > 0.0
tt - t_2_8 - 1000.000000 s_2_8  > -997.418764
s_1_1 + s_2_1 = 1
s_1_2 + s_2_2 = 1
s_1_3 + s_2_3 = 1
s_1_4 + s_2_4 = 1
s_1_5 + s_2_5 = 1
s_1_6 + s_2_6 = 1
s_1_7 + s_2_7 = 1
s_1_8 + s_2_8 = 1
s_1_1 + s_1_2 + 1000 r_1_1_2 >= 2
- s_1_1 - s_1_2 - 1000 r_1_1_2 >= -1001
t_1_1 - t_1_2 - 1000.000000 u_1_1_2 - 0.192051 s_1_2  + 0.192051 s_1_8  + 2000.000000 r_1_1_2 > -998.998856
s_2_1 + s_2_2 + 1000 r_2_1_2 >= 2
- s_2_1 - s_2_2 - 1000 r_2_1_2 >= -1001
t_2_1 - t_2_2 - 1000.000000 u_2_1_2 - 0.283022 s_2_2  + 0.283022 s_2_8  + 2000.000000 r_2_1_2 > -996.579008
s_1_1 + s_1_3 + 1000 r_1_1_3 >= 2
- s_1_1 - s_1_3 - 1000 r_1_1_3 >= -1001
t_1_1 - t_1_3 - 1000.000000 u_1_1_3 - 0.192051 s_1_3  + 0.192051 s_1_8  + 2000.000000 r_1_1_3 > -998.727800
s_2_1 + s_2_3 + 1000 r_2_1_3 >= 2
- s_2_1 - s_2_3 - 1000 r_2_1_3 >= -1001
t_2_1 - t_2_3 - 1000.000000 u_2_1_3 - 0.283022 s_2_3  + 0.283022 s_2_8  + 2000.000000 r_2_1_3 > -995.913450
s_1_1 + s_1_4 + 1000 r_1_1_4 >= 2
- s_1_1 - s_1_4 - 1000 r_1_1_4 >= -1001
t_1_1 - t_1_4 - 1000.000000 u_1_1_4 - 0.314269 s_1_4  + 0.192051 s_1_8  + 0.122219 s_1_3  + 2000.000000 r_1_1_4 > -999.402008
s_2_1 + s_2_4 + 1000 r_2_1_4 >= 2
- s_2_1 - s_2_4 - 1000 r_2_1_4 >= -1001
t_2_1 - t_2_4 - 1000.000000 u_2_1_4 - 0.484191 s_2_4  + 0.283022 s_2_8  + 0.201170 s_2_3  + 2000.000000 r_2_1_4 > -997.226033
s_1_1 + s_1_5 + 1000 r_1_1_5 >= 2
- s_1_1 - s_1_5 - 1000 r_1_1_5 >= -1001
t_1_1 - t_1_5 - 1000.000000 u_1_1_5 - 0.384101 s_1_5  + 0.192051 s_1_7  + 0.192051 s_1_8  + 2000.000000 r_1_1_5 > -999.035322
s_2_1 + s_2_5 + 1000 r_2_1_5 >= 2
- s_2_1 - s_2_5 - 1000 r_2_1_5 >= -1001
t_2_1 - t_2_5 - 1000.000000 u_2_1_5 - 0.566043 s_2_5  + 0.283022 s_2_7  + 0.283022 s_2_8  + 2000.000000 r_2_1_5 > -997.128675
t_1_6 - t_1_1 - 1000.192051 s_1_1  + 0.192051 s_1_7  > -999.197000
t_1_6 - t_2_1 - 1000.283022 s_2_1  + 0.283022 s_2_7  > -997.283779
t_2_6 - t_1_1 - 1000.192051 s_1_1  + 0.192051 s_1_7  > -999.197000
t_2_6 - t_2_1 - 1000.283022 s_2_1  + 0.283022 s_2_7  > -997.283779
t_1_1 - t_1_7 - 1000.000000 s_1_7  > -997.742800
t_1_1 - t_2_7 - 1000.000000 s_2_7  > -997.703100
t_2_1 - t_1_7 - 1000.000000 s_1_7  > -997.742800
t_2_1 - t_2_7 - 1000.000000 s_2_7  > -997.703100
s_1_1 + s_1_8 + 1000 r_1_1_8 >= 2
- s_1_1 - s_1_8 - 1000 r_1_1_8 >= -1001
t_1_1 - t_1_8 - 1000.000000 u_1_1_8 - 0.000000 s_1_8  + 2000.000000 r_1_1_8 > -997.615600
s_2_1 + s_2_8 + 1000 r_2_1_8 >= 2
- s_2_1 - s_2_8 - 1000 r_2_1_8 >= -1001
t_2_1 - t_2_8 - 1000.000000 u_2_1_8 - 0.000000 s_2_8  + 2000.000000 r_2_1_8 > -997.418764
s_1_2 + s_1_1 + 1000 r_1_1_2 >= 2
- s_1_2 - s_1_1 - 1000 r_1_1_2 >= -1001
t_1_2 - t_1_1 + 1000.000000 u_1_1_2 - 0.192051 s_1_1  + 0.192051 s_1_7  + 2000.000000 r_1_1_2 > 0.803000
s_2_2 + s_2_1 + 1000 r_2_1_2 >= 2
- s_2_2 - s_2_1 - 1000 r_2_1_2 >= -1001
t_2_2 - t_2_1 + 1000.000000 u_2_1_2 - 0.283022 s_2_1  + 0.283022 s_2_7  + 2000.000000 r_2_1_2 > 2.716221
s_1_2 + s_1_3 + 1000 r_1_2_3 >= 2
- s_1_2 - s_1_3 - 1000 r_1_2_3 >= -1001
t_1_2 - t_1_3 - 1000.000000 u_1_2_3 - 0.192051 s_1_3  + 0.192051 s_1_8  + 2000.000000 r_1_2_3 > -998.727800
s_2_2 + s_2_3 + 1000 r_2_2_3 >= 2
- s_2_2 - s_2_3 - 1000 r_2_2_3 >= -1001
t_2_2 - t_2_3 - 1000.000000 u_2_2_3 - 0.283022 s_2_3  + 0.283022 s_2_8  + 2000.000000 r_2_2_3 > -995.913450
s_1_2 + s_1_4 + 1000 r_1_2_4 >= 2
- s_1_2 - s_1_4 - 1000 r_1_2_4 >= -1001
t_1_2 - t_1_4 - 1000.000000 u_1_2_4 - 0.314269 s_1_4  + 0.192051 s_1_8  + 0.122219 s_1_3  + 2000.000000 r_1_2_4 > -999.402008
s_2_2 + s_2_4 + 1000 r_2_2_4 >= 2
- s_2_2 - s_2_4 - 1000 r_2_2_4 >= -1001
t_2_2 - t_2_4 - 1000.000000 u_2_2_4 - 0.484191 s_2_4  + 0.283022 s_2_8  + 0.201170 s_2_3  + 2000.000000 r_2_2_4 > -997.226033
s_1_2 + s_1_5 + 1000 r_1_2_5 >= 2
- s_1_2 - s_1_5 - 1000 r_1_2_5 >= -1001
t_1_2 - t_1_5 - 1000.000000 u_1_2_5 - 0.384101 s_1_5  + 0.192051 s_1_7  + 0.192051 s_1_8  + 2000.000000 r_1_2_5 > -999.035322
s_2_2 + s_2_5 + 1000 r_2_2_5 >= 2
- s_2_2 - s_2_5 - 1000 r_2_2_5 >= -1001
t_2_2 - t_2_5 - 1000.000000 u_2_2_5 - 0.566043 s_2_5  + 0.283022 s_2_7  + 0.283022 s_2_8  + 2000.000000 r_2_2_5 > -997.128675
t_1_6 - t_1_2 - 1000.192051 s_1_2  + 0.192051 s_1_8  > -998.998856
t_1_6 - t_2_2 - 1000.283022 s_2_2  + 0.283022 s_2_8  > -996.579008
t_2_6 - t_1_2 - 1000.192051 s_1_2  + 0.192051 s_1_8  > -998.998856
t_2_6 - t_2_2 - 1000.283022 s_2_2  + 0.283022 s_2_8  > -996.579008
s_1_2 + s_1_7 + 1000 r_1_2_7 >= 2
- s_1_2 - s_1_7 - 1000 r_1_2_7 >= -1001
t_1_2 - t_1_7 - 1000.000000 u_1_2_7 - 0.000000 s_1_7  + 2000.000000 r_1_2_7 > -997.742800
s_2_2 + s_2_7 + 1000 r_2_2_7 >= 2
- s_2_2 - s_2_7 - 1000 r_2_2_7 >= -1001
t_2_2 - t_2_7 - 1000.000000 u_2_2_7 - 0.000000 s_2_7  + 2000.000000 r_2_2_7 > -997.703100
t_1_2 - t_1_8 - 1000.000000 s_1_8  > -997.615600
t_1_2 - t_2_8 - 1000.000000 s_2_8  > -997.418764
t_2_2 - t_1_8 - 1000.000000 s_1_8  > -997.615600
t_2_2 - t_2_8 - 1000.000000 s_2_8  > -997.418764
s_1_3 + s_1_1 + 1000 r_1_1_3 >= 2
- s_1_3 - s_1_1 - 1000 r_1_1_3 >= -1001
t_1_3 - t_1_1 + 1000.000000 u_1_1_3 - 0.192051 s_1_1  + 0.192051 s_1_7  + 2000.000000 r_1_1_3 > 0.803000
s_2_3 + s_2_1 + 1000 r_2_1_3 >= 2
- s_2_3 - s_2_1 - 1000 r_2_1_3 >= -1001
t_2_3 - t_2_1 + 1000.000000 u_2_1_3 - 0.283022 s_2_1  + 0.283022 s_2_7  + 2000.000000 r_2_1_3 > 2.716221
s_1_3 + s_1_2 + 1000 r_1_2_3 >= 2
- s_1_3 - s_1_2 - 1000 r_1_2_3 >= -1001
t_1_3 - t_1_2 + 1000.000000 u_1_2_3 - 0.192051 s_1_2  + 0.192051 s_1_8  + 2000.000000 r_1_2_3 > 1.001144
s_2_3 + s_2_2 + 1000 r_2_2_3 >= 2
- s_2_3 - s_2_2 - 1000 r_2_2_3 >= -1001
t_2_3 - t_2_2 + 1000.000000 u_2_2_3 - 0.283022 s_2_2  + 0.283022 s_2_8  + 2000.000000 r_2_2_3 > 3.420992
t_1_4 - t_1_3 - 1000.192051 s_1_3  + 0.192051 s_1_8  > -998.727800
t_1_4 - t_2_3 - 1000.283022 s_2_3  + 0.283022 s_2_8  > -995.913450
t_2_4 - t_1_3 - 1000.192051 s_1_3  + 0.192051 s_1_8  > -998.727800
t_2_4 - t_2_3 - 1000.283022 s_2_3  + 0.283022 s_2_8  > -995.913450
s_1_3 + s_1_5 + 1000 r_1_3_5 >= 2
- s_1_3 - s_1_5 - 1000 r_1_3_5 >= -1001
t_1_3 - t_1_5 - 1000.000000 u_1_3_5 - 0.384101 s_1_5  + 0.192051 s_1_7  + 0.192051 s_1_8  + 2000.000000 r_1_3_5 > -999.035322
s_2_3 + s_2_5 + 1000 r_2_3_5 >= 2
- s_2_3 - s_2_5 - 1000 r_2_3_5 >= -1001
t_2_3 - t_2_5 - 1000.000000 u_2_3_5 - 0.566043 s_2_5  + 0.283022 s_2_7  + 0.283022 s_2_8  + 2000.000000 r_2_3_5 > -997.128675
t_1_6 - t_1_3 - 1000.192051 s_1_3  + 0.192051 s_1_8  > -998.727800
t_1_6 - t_2_3 - 1000.283022 s_2_3  + 0.283022 s_2_8  > -995.913450
t_2_6 - t_1_3 - 1000.192051 s_1_3  + 0.192051 s_1_8  > -998.727800
t_2_6 - t_2_3 - 1000.283022 s_2_3  + 0.283022 s_2_8  > -995.913450
s_1_3 + s_1_7 + 1000 r_1_3_7 >= 2
- s_1_3 - s_1_7 - 1000 r_1_3_7 >= -1001
t_1_3 - t_1_7 - 1000.000000 u_1_3_7 - 0.000000 s_1_7  + 2000.000000 r_1_3_7 > -997.742800
s_2_3 + s_2_7 + 1000 r_2_3_7 >= 2
- s_2_3 - s_2_7 - 1000 r_2_3_7 >= -1001
t_2_3 - t_2_7 - 1000.000000 u_2_3_7 - 0.000000 s_2_7  + 2000.000000 r_2_3_7 > -997.703100
t_1_3 - t_1_8 - 1000.000000 s_1_8  > -997.615600
t_1_3 - t_2_8 - 1000.000000 s_2_8  > -997.418764
t_2_3 - t_1_8 - 1000.000000 s_1_8  > -997.615600
t_2_3 - t_2_8 - 1000.000000 s_2_8  > -997.418764
s_1_4 + s_1_1 + 1000 r_1_1_4 >= 2
- s_1_4 - s_1_1 - 1000 r_1_1_4 >= -1001
t_1_4 - t_1_1 + 1000.000000 u_1_1_4 - 0.192051 s_1_1  + 0.192051 s_1_7  + 2000.000000 r_1_1_4 > 0.803000
s_2_4 + s_2_1 + 1000 r_2_1_4 >= 2
- s_2_4 - s_2_1 - 1000 r_2_1_4 >= -1001
t_2_4 - t_2_1 + 1000.000000 u_2_1_4 - 0.283022 s_2_1  + 0.283022 s_2_7  + 2000.000000 r_2_1_4 > 2.716221
s_1_4 + s_1_2 + 1000 r_1_2_4 >= 2
- s_1_4 - s_1_2 - 1000 r_1_2_4 >= -1001
t_1_4 - t_1_2 + 1000.000000 u_1_2_4 - 0.192051 s_1_2  + 0.192051 s_1_8  + 2000.000000 r_1_2_4 > 1.001144
s_2_4 + s_2_2 + 1000 r_2_2_4 >= 2
- s_2_4 - s_2_2 - 1000 r_2_2_4 >= -1001
t_2_4 - t_2_2 + 1000.000000 u_2_2_4 - 0.283022 s_2_2  + 0.283022 s_2_8  + 2000.000000 r_2_2_4 > 3.420992
s_1_4 + s_1_5 + 1000 r_1_4_5 >= 2
- s_1_4 - s_1_5 - 1000 r_1_4_5 >= -1001
t_1_4 - t_1_5 - 1000.000000 u_1_4_5 - 0.384101 s_1_5  + 0.192051 s_1_7  + 0.192051 s_1_8  + 2000.000000 r_1_4_5 > -999.035322
s_2_4 + s_2_5 + 1000 r_2_4_5 >= 2
- s_2_4 - s_2_5 - 1000 r_2_4_5 >= -1001
t_2_4 - t_2_5 - 1000.000000 u_2_4_5 - 0.566043 s_2_5  + 0.283022 s_2_7  + 0.283022 s_2_8  + 2000.000000 r_2_4_5 > -997.128675
t_1_6 - t_1_4 - 1000.314269 s_1_4  + 0.192051 s_1_8  + 0.122219 s_1_3  > -999.402008
t_1_6 - t_2_4 - 1000.484191 s_2_4  + 0.283022 s_2_8  + 0.201170 s_2_3  > -997.226033
t_2_6 - t_1_4 - 1000.314269 s_1_4  + 0.192051 s_1_8  + 0.122219 s_1_3  > -999.402008
t_2_6 - t_2_4 - 1000.484191 s_2_4  + 0.283022 s_2_8  + 0.201170 s_2_3  > -997.226033
s_1_4 + s_1_7 + 1000 r_1_4_7 >= 2
- s_1_4 - s_1_7 - 1000 r_1_4_7 >= -1001
t_1_4 - t_1_7 - 1000.000000 u_1_4_7 - 0.000000 s_1_7  + 2000.000000 r_1_4_7 > -997.742800
s_2_4 + s_2_7 + 1000 r_2_4_7 >= 2
- s_2_4 - s_2_7 - 1000 r_2_4_7 >= -1001
t_2_4 - t_2_7 - 1000.000000 u_2_4_7 - 0.000000 s_2_7  + 2000.000000 r_2_4_7 > -997.703100
t_1_4 - t_1_8 - 1000.000000 s_1_8  > -997.615600
t_1_4 - t_2_8 - 1000.000000 s_2_8  > -997.418764
t_2_4 - t_1_8 - 1000.000000 s_1_8  > -997.615600
t_2_4 - t_2_8 - 1000.000000 s_2_8  > -997.418764
s_1_5 + s_1_1 + 1000 r_1_1_5 >= 2
- s_1_5 - s_1_1 - 1000 r_1_1_5 >= -1001
t_1_5 - t_1_1 + 1000.000000 u_1_1_5 - 0.192051 s_1_1  + 0.192051 s_1_7  + 2000.000000 r_1_1_5 > 0.803000
s_2_5 + s_2_1 + 1000 r_2_1_5 >= 2
- s_2_5 - s_2_1 - 1000 r_2_1_5 >= -1001
t_2_5 - t_2_1 + 1000.000000 u_2_1_5 - 0.283022 s_2_1  + 0.283022 s_2_7  + 2000.000000 r_2_1_5 > 2.716221
s_1_5 + s_1_2 + 1000 r_1_2_5 >= 2
- s_1_5 - s_1_2 - 1000 r_1_2_5 >= -1001
t_1_5 - t_1_2 + 1000.000000 u_1_2_5 - 0.192051 s_1_2  + 0.192051 s_1_8  + 2000.000000 r_1_2_5 > 1.001144
s_2_5 + s_2_2 + 1000 r_2_2_5 >= 2
- s_2_5 - s_2_2 - 1000 r_2_2_5 >= -1001
t_2_5 - t_2_2 + 1000.000000 u_2_2_5 - 0.283022 s_2_2  + 0.283022 s_2_8  + 2000.000000 r_2_2_5 > 3.420992
s_1_5 + s_1_3 + 1000 r_1_3_5 >= 2
- s_1_5 - s_1_3 - 1000 r_1_3_5 >= -1001
t_1_5 - t_1_3 + 1000.000000 u_1_3_5 - 0.192051 s_1_3  + 0.192051 s_1_8  + 2000.000000 r_1_3_5 > 1.272200
s_2_5 + s_2_3 + 1000 r_2_3_5 >= 2
- s_2_5 - s_2_3 - 1000 r_2_3_5 >= -1001
t_2_5 - t_2_3 + 1000.000000 u_2_3_5 - 0.283022 s_2_3  + 0.283022 s_2_8  + 2000.000000 r_2_3_5 > 4.086550
s_1_5 + s_1_4 + 1000 r_1_4_5 >= 2
- s_1_5 - s_1_4 - 1000 r_1_4_5 >= -1001
t_1_5 - t_1_4 + 1000.000000 u_1_4_5 - 0.314269 s_1_4  + 0.192051 s_1_8  + 0.122219 s_1_3  + 2000.000000 r_1_4_5 > 0.597992
s_2_5 + s_2_4 + 1000 r_2_4_5 >= 2
- s_2_5 - s_2_4 - 1000 r_2_4_5 >= -1001
t_2_5 - t_2_4 + 1000.000000 u_2_4_5 - 0.484191 s_2_4  + 0.283022 s_2_8  + 0.201170 s_2_3  + 2000.000000 r_2_4_5 > 2.773967
t_1_6 - t_1_5 - 1000.384101 s_1_5  + 0.192051 s_1_7  + 0.192051 s_1_8  > -999.035322
t_1_6 - t_2_5 - 1000.566043 s_2_5  + 0.283022 s_2_7  + 0.283022 s_2_8  > -997.128675
t_2_6 - t_1_5 - 1000.384101 s_1_5  + 0.192051 s_1_7  + 0.192051 s_1_8  > -999.035322
t_2_6 - t_2_5 - 1000.566043 s_2_5  + 0.283022 s_2_7  + 0.283022 s_2_8  > -997.128675
t_1_5 - t_1_7 - 1000.000000 s_1_7  > -997.742800
t_1_5 - t_2_7 - 1000.000000 s_2_7  > -997.703100
t_2_5 - t_1_7 - 1000.000000 s_1_7  > -997.742800
t_2_5 - t_2_7 - 1000.000000 s_2_7  > -997.703100
t_1_5 - t_1_8 - 1000.000000 s_1_8  > -997.615600
t_1_5 - t_2_8 - 1000.000000 s_2_8  > -997.418764
t_2_5 - t_1_8 - 1000.000000 s_1_8  > -997.615600
t_2_5 - t_2_8 - 1000.000000 s_2_8  > -997.418764
s_1_7 + s_1_2 + 1000 r_1_2_7 >= 2
- s_1_7 - s_1_2 - 1000 r_1_2_7 >= -1001
t_1_7 - t_1_2 + 1000.000000 u_1_2_7 - 0.192051 s_1_2  + 0.192051 s_1_8  + 2000.000000 r_1_2_7 > 1.001144
s_2_7 + s_2_2 + 1000 r_2_2_7 >= 2
- s_2_7 - s_2_2 - 1000 r_2_2_7 >= -1001
t_2_7 - t_2_2 + 1000.000000 u_2_2_7 - 0.283022 s_2_2  + 0.283022 s_2_8  + 2000.000000 r_2_2_7 > 3.420992
s_1_7 + s_1_3 + 1000 r_1_3_7 >= 2
- s_1_7 - s_1_3 - 1000 r_1_3_7 >= -1001
t_1_7 - t_1_3 + 1000.000000 u_1_3_7 - 0.192051 s_1_3  + 0.192051 s_1_8  + 2000.000000 r_1_3_7 > 1.272200
s_2_7 + s_2_3 + 1000 r_2_3_7 >= 2
- s_2_7 - s_2_3 - 1000 r_2_3_7 >= -1001
t_2_7 - t_2_3 + 1000.000000 u_2_3_7 - 0.283022 s_2_3  + 0.283022 s_2_8  + 2000.000000 r_2_3_7 > 4.086550
s_1_7 + s_1_4 + 1000 r_1_4_7 >= 2
- s_1_7 - s_1_4 - 1000 r_1_4_7 >= -1001
t_1_7 - t_1_4 + 1000.000000 u_1_4_7 - 0.314269 s_1_4  + 0.192051 s_1_8  + 0.122219 s_1_3  + 2000.000000 r_1_4_7 > 0.597992
s_2_7 + s_2_4 + 1000 r_2_4_7 >= 2
- s_2_7 - s_2_4 - 1000 r_2_4_7 >= -1001
t_2_7 - t_2_4 + 1000.000000 u_2_4_7 - 0.484191 s_2_4  + 0.283022 s_2_8  + 0.201170 s_2_3  + 2000.000000 r_2_4_7 > 2.773967
s_1_7 + s_1_8 + 1000 r_1_7_8 >= 2
- s_1_7 - s_1_8 - 1000 r_1_7_8 >= -1001
t_1_7 - t_1_8 - 1000.000000 u_1_7_8 - 0.000000 s_1_8  + 2000.000000 r_1_7_8 > -997.615600
s_2_7 + s_2_8 + 1000 r_2_7_8 >= 2
- s_2_7 - s_2_8 - 1000 r_2_7_8 >= -1001
t_2_7 - t_2_8 - 1000.000000 u_2_7_8 - 0.000000 s_2_8  + 2000.000000 r_2_7_8 > -997.418764
s_1_8 + s_1_1 + 1000 r_1_1_8 >= 2
- s_1_8 - s_1_1 - 1000 r_1_1_8 >= -1001
t_1_8 - t_1_1 + 1000.000000 u_1_1_8 - 0.192051 s_1_1  + 0.192051 s_1_7  + 2000.000000 r_1_1_8 > 0.803000
s_2_8 + s_2_1 + 1000 r_2_1_8 >= 2
- s_2_8 - s_2_1 - 1000 r_2_1_8 >= -1001
t_2_8 - t_2_1 + 1000.000000 u_2_1_8 - 0.283022 s_2_1  + 0.283022 s_2_7  + 2000.000000 r_2_1_8 > 2.716221
s_1_8 + s_1_7 + 1000 r_1_7_8 >= 2
- s_1_8 - s_1_7 - 1000 r_1_7_8 >= -1001
t_1_8 - t_1_7 + 1000.000000 u_1_7_8 - 0.000000 s_1_7  + 2000.000000 r_1_7_8 > 2.257200
s_2_8 + s_2_7 + 1000 r_2_7_8 >= 2
- s_2_8 - s_2_7 - 1000 r_2_7_8 >= -1001
t_2_8 - t_2_7 + 1000.000000 u_2_7_8 - 0.000000 s_2_7  + 2000.000000 r_2_7_8 > 2.296900
Binary
s_1_1
s_2_1
s_1_2
s_2_2
s_1_3
s_2_3
s_1_4
s_2_4
s_1_5
s_2_5
s_1_6
s_2_6
s_1_7
s_2_7
s_1_8
s_2_8
u_1_1_2
r_1_1_2
u_2_1_2
r_2_1_2
u_1_1_3
r_1_1_3
u_2_1_3
r_2_1_3
u_1_1_4
r_1_1_4
u_2_1_4
r_2_1_4
u_1_1_5
r_1_1_5
u_2_1_5
r_2_1_5
u_1_1_8
r_1_1_8
u_2_1_8
r_2_1_8
u_1_2_3
r_1_2_3
u_2_2_3
r_2_2_3
u_1_2_4
r_1_2_4
u_2_2_4
r_2_2_4
u_1_2_5
r_1_2_5
u_2_2_5
r_2_2_5
u_1_2_7
r_1_2_7
u_2_2_7
r_2_2_7
u_1_3_5
r_1_3_5
u_2_3_5
r_2_3_5
u_1_3_7
r_1_3_7
u_2_3_7
r_2_3_7
u_1_4_5
r_1_4_5
u_2_4_5
r_2_4_5
u_1_4_7
r_1_4_7
u_2_4_7
r_2_4_7
u_1_7_8
r_1_7_8
u_2_7_8
r_2_7_8

End
